151
300
210	8
209	7
208	13
207	8
206	4
205	4
204	6
203	7
202	7
201	9
200	8
199	6
198	4
197	6
196	10
195	9
194	5
193	8
192	8
191	4
190	6
189	6
188	10
187	12
186	5
185	4
184	6
183	9
182	7
181	6
180	3
179	10
178	3
177	3
176	7
175	7
174	5
173	7
172	2
171	10
170	8
169	9
168	8
167	10
166	4
165	2
164	4
163	5
162	7
161	4
160	9
159	8
158	5
157	10
156	7
155	6
154	7
153	8
152	10
151	4
150	10
149	8
148	8
147	6
146	4
145	6
144	8
143	3
142	9
141	8
140	7
139	10
138	5
137	7
136	8
135	6
134	6
133	5
132	9
131	8
130	10
129	8
128	4
127	10
126	6
125	4
124	9
123	3
122	10
121	7
120	8
119	8
118	11
117	3
116	8
115	8
114	8
113	1
112	5
111	9
110	12
109	4
108	4
107	5
106	6
105	2
104	3
103	2
102	7
101	6
100	7
99	6
98	2
97	3
96	4
95	6
94	4
93	2
92	7
91	4
90	6
89	9
88	6
87	6
86	6
85	7
84	3
83	6
82	6
81	6
80	4
79	8
78	6
77	13
76	14
75	4
74	8
73	4
72	13
71	7
70	7
69	9
68	10
67	5
66	6
65	9
64	5
63	6
62	9
61	5
60	6
